NAME : XML100_3125_24
DIMENSION : 101
NB_CLUSTERS : 26
CLUSTERING_ALG : KMeans
CLUSTERING_PARAMS : k(28)
CLUSTERS
1 0
2 4 30 82
3 22 43 75 76 98
4 16 62 67 74
5 31 58 61 72 96 100
6 44 50 68 85
7 8 29 54 55 90
8 3 10 70 93
9 13 20 21 28 48
10 33 34
11 2 5 6 49 60
12 18 57 59
13 12 17 39 64 81
14 32 52 80
15 14 23 25 27 78 83
16 42 69 91
17 26 37 71 77 79 88
18 1 15 38 86 95
19 11 87
20 40 63 99
21 9 24 35 92
22 7 45 73 84 97
23 19 41 47 51
24 46 65 89
25 66 94
26 36 53 56
EOF